75
1 0 2
2 0 2
2 1 1
3 0 2
3 1 3
3 2 3
4 0 2
4 1 5
4 2 4
4 3 4
5 0 1
5 1 2
5 2 2
5 3 3
5 4 4
6 0 3
6 1 2
6 2 4
6 3 5
6 4 2
6 5 1
7 0 1
7 1 5
7 2 2
7 3 5
7 4 3
7 5 3
7 6 1
8 0 5
8 1 1
8 2 4
8 3 5
8 4 2
8 5 5
8 6 3
8 7 1
9 0 4
9 1 4
9 2 3
9 3 4
9 4 3
9 5 3
9 6 5
9 7 3
9 8 4
10 0 4
10 1 3
10 2 1
10 3 4
10 4 5
10 5 4
10 6 5
10 7 1
10 8 4
10 9 3
11 0 4
11 1 2
11 2 5
11 3 3
11 4 1
11 5 3
11 6 2
11 7 1
11 8 4
11 9 3
11 10 1
12 0 3
12 1 5
12 2 5
12 3 1
12 4 5
12 5 4
12 6 3
12 7 5
12 8 3
12 9 3
12 10 2
12 11 4
13 0 1
13 1 5
13 2 2
13 3 2
13 4 3
13 5 5
13 6 3
13 7 3
13 8 4
13 9 3
13 10 2
13 11 2
13 12 1
14 0 5
14 1 3
14 2 2
14 3 1
14 4 2
14 5 2
14 6 4
14 7 3
14 8 1
14 9 4
14 10 3
14 11 5
14 12 5
14 13 1
15 0 3
15 1 3
15 2 5
15 3 2
15 4 3
15 5 4
15 6 4
15 7 1
15 8 2
15 9 4
15 10 4
15 11 4
15 12 4
15 13 5
15 14 2
16 0 2
16 1 2
16 2 1
16 3 3
16 4 5
16 5 3
16 6 3
16 7 3
16 8 1
16 9 3
16 10 2
16 11 4
16 12 1
16 13 3
16 14 1
16 15 1
17 0 5
17 1 2
17 2 5
17 3 3
17 4 5
17 5 2
17 6 1
17 7 1
17 8 4
17 9 5
17 10 1
17 11 3
17 12 2
17 13 5
17 14 3
17 15 2
17 16 4
18 0 4
18 1 4
18 2 5
18 3 3
18 4 2
18 5 1
18 6 3
18 7 2
18 8 5
18 9 5
18 10 4
18 11 3
18 12 2
18 13 4
18 14 5
18 15 1
18 16 1
18 17 1
19 0 5
19 1 3
19 2 5
19 3 1
19 4 3
19 5 1
19 6 1
19 7 3
19 8 4
19 9 5
19 10 2
19 11 1
19 12 4
19 13 1
19 14 5
19 15 3
19 16 1
19 17 5
19 18 3
20 0 4
20 1 3
20 2 5
20 3 2
20 4 1
20 5 3
20 6 5
20 7 1
20 8 5
20 9 4
20 10 5
20 11 2
20 12 1
20 13 4
20 14 4
20 15 3
20 16 5
20 17 2
20 18 2
20 19 3
21 0 1
21 1 5
21 2 2
21 3 2
21 4 2
21 5 5
21 6 4
21 7 1
21 8 2
21 9 3
21 10 5
21 11 1
21 12 2
21 13 3
21 14 5
21 15 2
21 16 2
21 17 1
21 18 3
21 19 2
21 20 4
22 0 1
22 1 1
22 2 3
22 3 4
22 4 5
22 5 3
22 6 2
22 7 4
22 8 4
22 9 5
22 10 3
22 11 5
22 12 5
22 13 4
22 14 4
22 15 4
22 16 5
22 17 5
22 18 2
22 19 5
22 20 5
22 21 5
23 0 2
23 1 3
23 2 2
23 3 4
23 4 2
23 5 5
23 6 4
23 7 2
23 8 3
23 9 4
23 10 4
23 11 5
23 12 2
23 13 1
23 14 3
23 15 2
23 16 4
23 17 4
23 18 3
23 19 5
23 20 1
23 21 5
23 22 3
24 0 2
24 1 2
24 2 5
24 3 3
24 4 3
24 5 2
24 6 2
24 7 2
24 8 1
24 9 3
24 10 2
24 11 4
24 12 4
24 13 2
24 14 4
24 15 3
24 16 1
24 17 5
24 18 5
24 19 4
24 20 2
24 21 1
24 22 3
24 23 1
25 0 2
25 1 3
25 2 1
25 3 4
25 4 2
25 5 3
25 6 3
25 7 5
25 8 1
25 9 3
25 10 3
25 11 3
25 12 3
25 13 1
25 14 2
25 15 4
25 16 5
25 17 1
25 18 3
25 19 1
25 20 5
25 21 4
25 22 1
25 23 2
25 24 2
26 0 1
26 1 3
26 2 5
26 3 4
26 4 5
26 5 3
26 6 1
26 7 3
26 8 1
26 9 2
26 10 4
26 11 4
26 12 4
26 13 2
26 14 1
26 15 5
26 16 3
26 17 1
26 18 5
26 19 4
26 20 1
26 21 1
26 22 1
26 23 1
26 24 1
26 25 4
27 0 4
27 1 2
27 2 3
27 3 3
27 4 2
27 5 5
27 6 3
27 7 3
27 8 4
27 9 2
27 10 2
27 11 1
27 12 3
27 13 1
27 14 5
27 15 4
27 16 3
27 17 2
27 18 3
27 19 5
27 20 5
27 21 1
27 22 2
27 23 3
27 24 5
27 25 5
27 26 1
28 0 2
28 1 4
28 2 4
28 3 5
28 4 3
28 5 2
28 6 2
28 7 1
28 8 3
28 9 4
28 10 2
28 11 3
28 12 1
28 13 4
28 14 1
28 15 5
28 16 2
28 17 5
28 18 1
28 19 5
28 20 3
28 21 4
28 22 5
28 23 3
28 24 3
28 25 5
28 26 2
28 27 2
29 0 2
29 1 2
29 2 2
29 3 4
29 4 2
29 5 3
29 6 1
29 7 1
29 8 1
29 9 5
29 10 5
29 11 5
29 12 3
29 13 5
29 14 4
29 15 4
29 16 3
29 17 5
29 18 1
29 19 3
29 20 2
29 21 1
29 22 4
29 23 2
29 24 3
29 25 5
29 26 1
29 27 3
29 28 2
30 0 1
30 1 3
30 2 3
30 3 5
30 4 1
30 5 3
30 6 5
30 7 4
30 8 5
30 9 5
30 10 3
30 11 2
30 12 1
30 13 3
30 14 5
30 15 5
30 16 5
30 17 3
30 18 2
30 19 1
30 20 4
30 21 3
30 22 2
30 23 1
30 24 4
30 25 2
30 26 3
30 27 4
30 28 4
30 29 3
31 0 5
31 1 5
31 2 5
31 3 3
31 4 1
31 5 2
31 6 3
31 7 3
31 8 5
31 9 4
31 10 2
31 11 2
31 12 2
31 13 1
31 14 5
31 15 2
31 16 5
31 17 5
31 18 4
31 19 3
31 20 4
31 21 3
31 22 3
31 23 2
31 24 3
31 25 1
31 26 4
31 27 2
31 28 1
31 29 4
31 30 4
32 0 1
32 1 4
32 2 3
32 3 5
32 4 4
32 5 2
32 6 3
32 7 3
32 8 1
32 9 4
32 10 1
32 11 4
32 12 3
32 13 2
32 14 5
32 15 3
32 16 5
32 17 5
32 18 5
32 19 3
32 20 3
32 21 2
32 22 3
32 23 2
32 24 1
32 25 2
32 26 4
32 27 2
32 28 4
32 29 3
32 30 5
32 31 4
33 0 1
33 1 3
33 2 1
33 3 5
33 4 1
33 5 5
33 6 1
33 7 3
33 8 1
33 9 5
33 10 5
33 11 3
33 12 1
33 13 1
33 14 4
33 15 3
33 16 1
33 17 1
33 18 5
33 19 5
33 20 3
33 21 2
33 22 5
33 23 3
33 24 1
33 25 2
33 26 5
33 27 4
33 28 2
33 29 5
33 30 4
33 31 2
33 32 2
34 0 2
34 1 3
34 2 4
34 3 1
34 4 1
34 5 5
34 6 1
34 7 2
34 8 2
34 9 4
34 10 5
34 11 3
34 12 3
34 13 4
34 14 2
34 15 4
34 16 1
34 17 1
34 18 4
34 19 3
34 20 4
34 21 1
34 22 2
34 23 3
34 24 5
34 25 3
34 26 2
34 27 2
34 28 4
34 29 3
34 30 3
34 31 5
34 32 3
34 33 5
35 0 4
35 1 4
35 2 3
35 3 3
35 4 5
35 5 3
35 6 1
35 7 3
35 8 2
35 9 3
35 10 2
35 11 2
35 12 2
35 13 4
35 14 1
35 15 2
35 16 3
35 17 5
35 18 4
35 19 3
35 20 5
35 21 5
35 22 3
35 23 3
35 24 3
35 25 5
35 26 2
35 27 3
35 28 1
35 29 2
35 30 2
35 31 2
35 32 5
35 33 3
35 34 5
36 0 4
36 1 4
36 2 5
36 3 4
36 4 5
36 5 1
36 6 4
36 7 4
36 8 5
36 9 1
36 10 2
36 11 1
36 12 3
36 13 5
36 14 4
36 15 3
36 16 2
36 17 2
36 18 2
36 19 2
36 20 4
36 21 2
36 22 4
36 23 2
36 24 5
36 25 1
36 26 3
36 27 1
36 28 3
36 29 2
36 30 3
36 31 3
36 32 3
36 33 3
36 34 4
36 35 4
37 0 5
37 1 1
37 2 2
37 3 4
37 4 4
37 5 1
37 6 4
37 7 2
37 8 3
37 9 3
37 10 5
37 11 4
37 12 2
37 13 4
37 14 3
37 15 4
37 16 1
37 17 4
37 18 1
37 19 5
37 20 1
37 21 1
37 22 4
37 23 4
37 24 3
37 25 4
37 26 3
37 27 2
37 28 4
37 29 4
37 30 5
37 31 1
37 32 2
37 33 3
37 34 2
37 35 1
37 36 1
38 0 4
38 1 3
38 2 5
38 3 4
38 4 2
38 5 4
38 6 2
38 7 2
38 8 4
38 9 3
38 10 4
38 11 2
38 12 1
38 13 1
38 14 1
38 15 5
38 16 3
38 17 4
38 18 1
38 19 2
38 20 4
38 21 3
38 22 1
38 23 2
38 24 5
38 25 1
38 26 1
38 27 1
38 28 4
38 29 2
38 30 1
38 31 5
38 32 4
38 33 1
38 34 4
38 35 3
38 36 5
38 37 4
39 0 5
39 1 5
39 2 2
39 3 4
39 4 1
39 5 3
39 6 1
39 7 1
39 8 1
39 9 4
39 10 2
39 11 2
39 12 3
39 13 1
39 14 2
39 15 1
39 16 2
39 17 2
39 18 1
39 19 1
39 20 1
39 21 2
39 22 2
39 23 1
39 24 1
39 25 4
39 26 3
39 27 5
39 28 3
39 29 3
39 30 5
39 31 4
39 32 5
39 33 3
39 34 3
39 35 3
39 36 4
39 37 3
39 38 4
40 0 3
40 1 1
40 2 5
40 3 2
40 4 1
40 5 3
40 6 1
40 7 1
40 8 3
40 9 4
40 10 5
40 11 1
40 12 5
40 13 1
40 14 3
40 15 1
40 16 3
40 17 1
40 18 3
40 19 2
40 20 5
40 21 3
40 22 3
40 23 1
40 24 3
40 25 5
40 26 5
40 27 3
40 28 2
40 29 4
40 30 4
40 31 4
40 32 1
40 33 4
40 34 4
40 35 4
40 36 2
40 37 5
40 38 4
40 39 1
41 0 1
41 1 4
41 2 4
41 3 2
41 4 3
41 5 3
41 6 2
41 7 1
41 8 3
41 9 2
41 10 2
41 11 4
41 12 4
41 13 5
41 14 3
41 15 5
41 16 4
41 17 1
41 18 3
41 19 1
41 20 4
41 21 1
41 22 1
41 23 2
41 24 2
41 25 2
41 26 4
41 27 4
41 28 3
41 29 2
41 30 3
41 31 5
41 32 5
41 33 2
41 34 1
41 35 1
41 36 3
41 37 5
41 38 5
41 39 3
41 40 1
42 0 1
42 1 2
42 2 2
42 3 1
42 4 3
42 5 3
42 6 5
42 7 3
42 8 2
42 9 3
42 10 3
42 11 3
42 12 4
42 13 4
42 14 2
42 15 4
42 16 4
42 17 3
42 18 3
42 19 3
42 20 2
42 21 4
42 22 2
42 23 4
42 24 5
42 25 2
42 26 2
42 27 2
42 28 3
42 29 1
42 30 4
42 31 5
42 32 4
42 33 5
42 34 1
42 35 5
42 36 5
42 37 5
42 38 4
42 39 4
42 40 5
42 41 2
43 0 1
43 1 3
43 2 4
43 3 2
43 4 5
43 5 3
43 6 1
43 7 3
43 8 2
43 9 1
43 10 1
43 11 5
43 12 3
43 13 5
43 14 2
43 15 5
43 16 4
43 17 2
43 18 4
43 19 2
43 20 3
43 21 3
43 22 5
43 23 3
43 24 2
43 25 3
43 26 1
43 27 4
43 28 4
43 29 5
43 30 5
43 31 1
43 32 5
43 33 4
43 34 3
43 35 1
43 36 2
43 37 2
43 38 3
43 39 5
43 40 1
43 41 5
43 42 1
44 0 4
44 1 3
44 2 2
44 3 5
44 4 1
44 5 2
44 6 1
44 7 1
44 8 1
44 9 3
44 10 3
44 11 3
44 12 3
44 13 3
44 14 2
44 15 2
44 16 4
44 17 2
44 18 2
44 19 3
44 20 3
44 21 4
44 22 4
44 23 4
44 24 2
44 25 2
44 26 5
44 27 5
44 28 4
44 29 1
44 30 3
44 31 2
44 32 4
44 33 2
44 34 3
44 35 3
44 36 1
44 37 2
44 38 5
44 39 5
44 40 4
44 41 4
44 42 2
44 43 5
45 0 4
45 1 2
45 2 3
45 3 3
45 4 3
45 5 5
45 6 5
45 7 4
45 8 1
45 9 3
45 10 5
45 11 5
45 12 1
45 13 1
45 14 3
45 15 4
45 16 2
45 17 1
45 18 1
45 19 3
45 20 3
45 21 3
45 22 4
45 23 3
45 24 3
45 25 1
45 26 3
45 27 1
45 28 2
45 29 2
45 30 3
45 31 4
45 32 3
45 33 5
45 34 1
45 35 2
45 36 3
45 37 1
45 38 2
45 39 3
45 40 3
45 41 3
45 42 2
45 43 2
45 44 3
46 0 5
46 1 5
46 2 4
46 3 1
46 4 4
46 5 1
46 6 2
46 7 3
46 8 3
46 9 3
46 10 2
46 11 1
46 12 1
46 13 5
46 14 4
46 15 3
46 16 3
46 17 3
46 18 5
46 19 4
46 20 2
46 21 5
46 22 4
46 23 3
46 24 3
46 25 4
46 26 5
46 27 5
46 28 2
46 29 4
46 30 3
46 31 1
46 32 3
46 33 1
46 34 2
46 35 4
46 36 1
46 37 1
46 38 3
46 39 4
46 40 5
46 41 5
46 42 3
46 43 1
46 44 2
46 45 3
47 0 1
47 1 1
47 2 2
47 3 3
47 4 2
47 5 2
47 6 5
47 7 1
47 8 5
47 9 3
47 10 5
47 11 4
47 12 3
47 13 2
47 14 5
47 15 4
47 16 5
47 17 2
47 18 5
47 19 2
47 20 5
47 21 3
47 22 2
47 23 3
47 24 1
47 25 1
47 26 1
47 27 2
47 28 2
47 29 5
47 30 5
47 31 4
47 32 5
47 33 3
47 34 4
47 35 1
47 36 4
47 37 5
47 38 4
47 39 4
47 40 5
47 41 2
47 42 1
47 43 2
47 44 3
47 45 4
47 46 2
48 0 2
48 1 3
48 2 2
48 3 1
48 4 2
48 5 4
48 6 4
48 7 1
48 8 1
48 9 3
48 10 1
48 11 5
48 12 1
48 13 5
48 14 1
48 15 5
48 16 4
48 17 3
48 18 4
48 19 5
48 20 1
48 21 1
48 22 3
48 23 5
48 24 2
48 25 1
48 26 4
48 27 3
48 28 1
48 29 2
48 30 2
48 31 1
48 32 3
48 33 1
48 34 2
48 35 4
48 36 1
48 37 2
48 38 2
48 39 2
48 40 3
48 41 2
48 42 2
48 43 5
48 44 5
48 45 5
48 46 3
48 47 3
49 0 2
49 1 5
49 2 5
49 3 5
49 4 5
49 5 1
49 6 5
49 7 4
49 8 1
49 9 1
49 10 1
49 11 1
49 12 1
49 13 4
49 14 2
49 15 5
49 16 3
49 17 5
49 18 1
49 19 5
49 20 4
49 21 3
49 22 5
49 23 4
49 24 2
49 25 3
49 26 5
49 27 3
49 28 5
49 29 3
49 30 1
49 31 3
49 32 5
49 33 3
49 34 3
49 35 2
49 36 1
49 37 1
49 38 1
49 39 4
49 40 5
49 41 2
49 42 1
49 43 4
49 44 3
49 45 1
49 46 1
49 47 5
49 48 5
50 0 5
50 1 3
50 2 1
50 3 5
50 4 2
50 5 1
50 6 4
50 7 4
50 8 2
50 9 5
50 10 3
50 11 4
50 12 3
50 13 3
50 14 1
50 15 1
50 16 4
50 17 1
50 18 5
50 19 5
50 20 5
50 21 5
50 22 3
50 23 2
50 24 1
50 25 4
50 26 3
50 27 2
50 28 5
50 29 2
50 30 5
50 31 2
50 32 1
50 33 1
50 34 4
50 35 5
50 36 4
50 37 5
50 38 2
50 39 5
50 40 4
50 41 5
50 42 4
50 43 4
50 44 1
50 45 4
50 46 4
50 47 5
50 48 5
50 49 4
51 0 5
51 1 5
51 2 4
51 3 2
51 4 1
51 5 5
51 6 3
51 7 2
51 8 1
51 9 3
51 10 2
51 11 3
51 12 4
51 13 1
51 14 5
51 15 3
51 16 4
51 17 2
51 18 4
51 19 2
51 20 1
51 21 5
51 22 4
51 23 5
51 24 1
51 25 5
51 26 2
51 27 5
51 28 1
51 29 5
51 30 3
51 31 1
51 32 5
51 33 3
51 34 2
51 35 5
51 36 1
51 37 5
51 38 2
51 39 4
51 40 3
51 41 5
51 42 3
51 43 4
51 44 4
51 45 1
51 46 4
51 47 3
51 48 2
51 49 4
51 50 3
52 0 1
52 1 2
52 2 3
52 3 1
52 4 3
52 5 5
52 6 3
52 7 2
52 8 4
52 9 5
52 10 5
52 11 2
52 12 1
52 13 2
52 14 2
52 15 3
52 16 1
52 17 5
52 18 2
52 19 5
52 20 5
52 21 4
52 22 2
52 23 5
52 24 2
52 25 1
52 26 4
52 27 4
52 28 2
52 29 3
52 30 5
52 31 5
52 32 3
52 33 1
52 34 3
52 35 1
52 36 2
52 37 2
52 38 2
52 39 5
52 40 2
52 41 2
52 42 5
52 43 1
52 44 4
52 45 5
52 46 3
52 47 3
52 48 5
52 49 3
52 50 4
52 51 4
53 0 1
53 1 1
53 2 1
53 3 1
53 4 3
53 5 3
53 6 3
53 7 2
53 8 2
53 9 5
53 10 5
53 11 5
53 12 5
53 13 5
53 14 3
53 15 4
53 16 4
53 17 4
53 18 4
53 19 4
53 20 3
53 21 5
53 22 3
53 23 2
53 24 4
53 25 1
53 26 1
53 27 2
53 28 5
53 29 1
53 30 3
53 31 3
53 32 2
53 33 3
53 34 1
53 35 1
53 36 2
53 37 3
53 38 3
53 39 1
53 40 2
53 41 1
53 42 4
53 43 5
53 44 5
53 45 4
53 46 2
53 47 5
53 48 2
53 49 3
53 50 1
53 51 1
53 52 2
54 0 5
54 1 4
54 2 3
54 3 1
54 4 4
54 5 1
54 6 2
54 7 1
54 8 3
54 9 3
54 10 4
54 11 5
54 12 1
54 13 1
54 14 3
54 15 4
54 16 2
54 17 3
54 18 4
54 19 3
54 20 5
54 21 4
54 22 2
54 23 5
54 24 4
54 25 2
54 26 5
54 27 1
54 28 2
54 29 4
54 30 5
54 31 3
54 32 5
54 33 2
54 34 4
54 35 3
54 36 4
54 37 2
54 38 5
54 39 4
54 40 4
54 41 1
54 42 4
54 43 4
54 44 2
54 45 5
54 46 2
54 47 5
54 48 4
54 49 1
54 50 1
54 51 4
54 52 1
54 53 3
55 0 3
55 1 1
55 2 3
55 3 2
55 4 4
55 5 1
55 6 5
55 7 1
55 8 4
55 9 2
55 10 4
55 11 2
55 12 3
55 13 2
55 14 5
55 15 5
55 16 1
55 17 4
55 18 2
55 19 3
55 20 3
55 21 5
55 22 4
55 23 1
55 24 1
55 25 1
55 26 1
55 27 1
55 28 2
55 29 3
55 30 2
55 31 1
55 32 3
55 33 2
55 34 3
55 35 5
55 36 2
55 37 4
55 38 5
55 39 1
55 40 4
55 41 1
55 42 2
55 43 5
55 44 4
55 45 5
55 46 3
55 47 1
55 48 2
55 49 5
55 50 3
55 51 4
55 52 3
55 53 1
55 54 3
56 0 4
56 1 5
56 2 1
56 3 1
56 4 4
56 5 2
56 6 4
56 7 4
56 8 2
56 9 1
56 10 5
56 11 1
56 12 2
56 13 1
56 14 1
56 15 5
56 16 1
56 17 2
56 18 4
56 19 5
56 20 4
56 21 5
56 22 2
56 23 2
56 24 2
56 25 2
56 26 3
56 27 3
56 28 4
56 29 2
56 30 4
56 31 2
56 32 2
56 33 5
56 34 4
56 35 5
56 36 2
56 37 5
56 38 5
56 39 1
56 40 2
56 41 4
56 42 2
56 43 1
56 44 5
56 45 5
56 46 2
56 47 5
56 48 4
56 49 2
56 50 2
56 51 4
56 52 1
56 53 1
56 54 2
56 55 5
57 0 1
57 1 2
57 2 5
57 3 4
57 4 1
57 5 3
57 6 4
57 7 4
57 8 2
57 9 1
57 10 4
57 11 2
57 12 2
57 13 3
57 14 2
57 15 5
57 16 4
57 17 4
57 18 4
57 19 1
57 20 2
57 21 5
57 22 4
57 23 4
57 24 2
57 25 3
57 26 5
57 27 5
57 28 2
57 29 2
57 30 3
57 31 3
57 32 1
57 33 2
57 34 1
57 35 4
57 36 5
57 37 4
57 38 4
57 39 5
57 40 4
57 41 4
57 42 3
57 43 2
57 44 3
57 45 2
57 46 2
57 47 2
57 48 5
57 49 2
57 50 5
57 51 2
57 52 1
57 53 5
57 54 2
57 55 3
57 56 1
58 0 2
58 1 2
58 2 5
58 3 3
58 4 5
58 5 4
58 6 5
58 7 4
58 8 1
58 9 5
58 10 5
58 11 5
58 12 1
58 13 1
58 14 1
58 15 1
58 16 2
58 17 1
58 18 2
58 19 1
58 20 3
58 21 5
58 22 1
58 23 3
58 24 2
58 25 5
58 26 2
58 27 4
58 28 1
58 29 2
58 30 4
58 31 2
58 32 5
58 33 5
58 34 4
58 35 5
58 36 4
58 37 3
58 38 5
58 39 4
58 40 2
58 41 2
58 42 4
58 43 3
58 44 2
58 45 2
58 46 4
58 47 3
58 48 5
58 49 1
58 50 4
58 51 3
58 52 5
58 53 5
58 54 2
58 55 2
58 56 5
58 57 5
59 0 5
59 1 5
59 2 1
59 3 3
59 4 3
59 5 3
59 6 5
59 7 1
59 8 3
59 9 4
59 10 5
59 11 5
59 12 3
59 13 1
59 14 4
59 15 2
59 16 3
59 17 4
59 18 3
59 19 1
59 20 5
59 21 1
59 22 1
59 23 2
59 24 3
59 25 3
59 26 1
59 27 1
59 28 5
59 29 3
59 30 4
59 31 2
59 32 1
59 33 3
59 34 5
59 35 3
59 36 4
59 37 3
59 38 4
59 39 5
59 40 1
59 41 5
59 42 2
59 43 4
59 44 2
59 45 2
59 46 5
59 47 4
59 48 5
59 49 1
59 50 1
59 51 3
59 52 1
59 53 5
59 54 3
59 55 5
59 56 4
59 57 2
59 58 3
60 0 2
60 1 3
60 2 1
60 3 5
60 4 1
60 5 4
60 6 5
60 7 1
60 8 4
60 9 3
60 10 3
60 11 5
60 12 3
60 13 4
60 14 1
60 15 3
60 16 1
60 17 5
60 18 1
60 19 2
60 20 2
60 21 2
60 22 1
60 23 1
60 24 4
60 25 3
60 26 1
60 27 3
60 28 5
60 29 2
60 30 2
60 31 1
60 32 2
60 33 4
60 34 1
60 35 3
60 36 5
60 37 2
60 38 1
60 39 2
60 40 2
60 41 2
60 42 1
60 43 4
60 44 5
60 45 3
60 46 2
60 47 3
60 48 2
60 49 5
60 50 5
60 51 1
60 52 2
60 53 2
60 54 2
60 55 5
60 56 4
60 57 2
60 58 1
60 59 4
61 0 2
61 1 2
61 2 1
61 3 5
61 4 4
61 5 3
61 6 1
61 7 2
61 8 2
61 9 1
61 10 4
61 11 1
61 12 4
61 13 3
61 14 1
61 15 1
61 16 4
61 17 5
61 18 1
61 19 5
61 20 5
61 21 2
61 22 5
61 23 2
61 24 3
61 25 5
61 26 2
61 27 1
61 28 4
61 29 4
61 30 1
61 31 3
61 32 1
61 33 2
61 34 4
61 35 2
61 36 2
61 37 4
61 38 1
61 39 2
61 40 2
61 41 2
61 42 2
61 43 1
61 44 1
61 45 2
61 46 2
61 47 1
61 48 3
61 49 4
61 50 5
61 51 1
61 52 2
61 53 4
61 54 3
61 55 1
61 56 4
61 57 5
61 58 5
61 59 4
61 60 2
62 0 5
62 1 2
62 2 3
62 3 2
62 4 5
62 5 3
62 6 4
62 7 4
62 8 5
62 9 5
62 10 1
62 11 5
62 12 5
62 13 4
62 14 1
62 15 3
62 16 1
62 17 3
62 18 5
62 19 5
62 20 5
62 21 1
62 22 3
62 23 4
62 24 1
62 25 2
62 26 5
62 27 3
62 28 1
62 29 3
62 30 2
62 31 5
62 32 1
62 33 2
62 34 3
62 35 2
62 36 2
62 37 5
62 38 5
62 39 2
62 40 3
62 41 1
62 42 1
62 43 3
62 44 4
62 45 3
62 46 2
62 47 5
62 48 5
62 49 2
62 50 3
62 51 1
62 52 2
62 53 4
62 54 2
62 55 1
62 56 2
62 57 1
62 58 4
62 59 5
62 60 1
62 61 2
63 0 3
63 1 2
63 2 1
63 3 3
63 4 4
63 5 5
63 6 1
63 7 3
63 8 4
63 9 3
63 10 1
63 11 1
63 12 2
63 13 3
63 14 5
63 15 5
63 16 1
63 17 1
63 18 5
63 19 2
63 20 4
63 21 1
63 22 2
63 23 4
63 24 3
63 25 3
63 26 2
63 27 5
63 28 4
63 29 2
63 30 5
63 31 4
63 32 5
63 33 2
63 34 5
63 35 5
63 36 5
63 37 3
63 38 3
63 39 4
63 40 2
63 41 5
63 42 4
63 43 3
63 44 2
63 45 5
63 46 1
63 47 5
63 48 1
63 49 4
63 50 1
63 51 5
63 52 5
63 53 4
63 54 3
63 55 2
63 56 1
63 57 2
63 58 3
63 59 3
63 60 1
63 61 2
63 62 3
64 0 1
64 1 3
64 2 5
64 3 3
64 4 4
64 5 1
64 6 4
64 7 1
64 8 3
64 9 4
64 10 2
64 11 5
64 12 2
64 13 2
64 14 5
64 15 5
64 16 5
64 17 4
64 18 3
64 19 2
64 20 4
64 21 3
64 22 4
64 23 5
64 24 3
64 25 4
64 26 2
64 27 3
64 28 2
64 29 5
64 30 4
64 31 5
64 32 5
64 33 2
64 34 5
64 35 3
64 36 4
64 37 1
64 38 4
64 39 5
64 40 2
64 41 5
64 42 2
64 43 1
64 44 4
64 45 2
64 46 2
64 47 1
64 48 5
64 49 4
64 50 4
64 51 5
64 52 1
64 53 4
64 54 3
64 55 5
64 56 1
64 57 1
64 58 3
64 59 4
64 60 1
64 61 5
64 62 3
64 63 5
65 0 5
65 1 2
65 2 5
65 3 3
65 4 2
65 5 1
65 6 3
65 7 2
65 8 5
65 9 3
65 10 3
65 11 5
65 12 5
65 13 5
65 14 4
65 15 1
65 16 3
65 17 2
65 18 2
65 19 4
65 20 1
65 21 2
65 22 1
65 23 4
65 24 2
65 25 2
65 26 2
65 27 4
65 28 4
65 29 3
65 30 1
65 31 1
65 32 2
65 33 3
65 34 2
65 35 2
65 36 1
65 37 2
65 38 1
65 39 5
65 40 4
65 41 5
65 42 1
65 43 5
65 44 3
65 45 4
65 46 3
65 47 5
65 48 1
65 49 4
65 50 4
65 51 5
65 52 5
65 53 1
65 54 3
65 55 5
65 56 4
65 57 1
65 58 2
65 59 3
65 60 3
65 61 1
65 62 4
65 63 1
65 64 5
66 0 5
66 1 5
66 2 5
66 3 3
66 4 1
66 5 3
66 6 3
66 7 2
66 8 4
66 9 2
66 10 1
66 11 1
66 12 5
66 13 5
66 14 3
66 15 2
66 16 3
66 17 3
66 18 5
66 19 3
66 20 3
66 21 4
66 22 5
66 23 3
66 24 4
66 25 1
66 26 5
66 27 5
66 28 4
66 29 1
66 30 4
66 31 1
66 32 5
66 33 5
66 34 4
66 35 2
66 36 3
66 37 1
66 38 2
66 39 5
66 40 5
66 41 2
66 42 1
66 43 3
66 44 1
66 45 4
66 46 2
66 47 3
66 48 3
66 49 1
66 50 4
66 51 4
66 52 2
66 53 4
66 54 2
66 55 5
66 56 2
66 57 1
66 58 1
66 59 2
66 60 5
66 61 3
66 62 4
66 63 1
66 64 4
66 65 3
67 0 5
67 1 1
67 2 2
67 3 1
67 4 4
67 5 3
67 6 1
67 7 5
67 8 4
67 9 4
67 10 4
67 11 2
67 12 2
67 13 1
67 14 2
67 15 3
67 16 3
67 17 1
67 18 4
67 19 4
67 20 1
67 21 1
67 22 2
67 23 3
67 24 1
67 25 3
67 26 3
67 27 2
67 28 3
67 29 3
67 30 5
67 31 5
67 32 1
67 33 4
67 34 5
67 35 1
67 36 3
67 37 3
67 38 1
67 39 4
67 40 1
67 41 5
67 42 4
67 43 3
67 44 3
67 45 1
67 46 5
67 47 3
67 48 4
67 49 3
67 50 1
67 51 4
67 52 5
67 53 2
67 54 5
67 55 5
67 56 5
67 57 1
67 58 2
67 59 1
67 60 1
67 61 4
67 62 2
67 63 2
67 64 3
67 65 3
67 66 3
68 0 1
68 1 4
68 2 2
68 3 4
68 4 2
68 5 5
68 6 1
68 7 1
68 8 5
68 9 3
68 10 5
68 11 1
68 12 5
68 13 2
68 14 5
68 15 5
68 16 2
68 17 1
68 18 5
68 19 5
68 20 1
68 21 1
68 22 5
68 23 3
68 24 2
68 25 5
68 26 2
68 27 1
68 28 5
68 29 2
68 30 1
68 31 1
68 32 3
68 33 5
68 34 1
68 35 2
68 36 5
68 37 3
68 38 4
68 39 1
68 40 4
68 41 2
68 42 2
68 43 4
68 44 5
68 45 4
68 46 4
68 47 1
68 48 2
68 49 5
68 50 3
68 51 3
68 52 1
68 53 1
68 54 4
68 55 3
68 56 2
68 57 4
68 58 2
68 59 2
68 60 5
68 61 5
68 62 4
68 63 5
68 64 3
68 65 5
68 66 5
68 67 1
69 0 5
69 1 2
69 2 1
69 3 1
69 4 2
69 5 3
69 6 4
69 7 3
69 8 3
69 9 4
69 10 4
69 11 2
69 12 2
69 13 5
69 14 5
69 15 4
69 16 3
69 17 5
69 18 5
69 19 4
69 20 3
69 21 1
69 22 2
69 23 3
69 24 3
69 25 4
69 26 3
69 27 3
69 28 5
69 29 3
69 30 1
69 31 3
69 32 4
69 33 5
69 34 5
69 35 1
69 36 1
69 37 4
69 38 5
69 39 5
69 40 5
69 41 4
69 42 4
69 43 4
69 44 2
69 45 5
69 46 2
69 47 5
69 48 5
69 49 5
69 50 3
69 51 1
69 52 2
69 53 5
69 54 2
69 55 4
69 56 1
69 57 3
69 58 4
69 59 5
69 60 5
69 61 5
69 62 3
69 63 1
69 64 3
69 65 3
69 66 3
69 67 1
69 68 3
70 0 5
70 1 3
70 2 1
70 3 3
70 4 3
70 5 3
70 6 3
70 7 5
70 8 1
70 9 5
70 10 1
70 11 3
70 12 5
70 13 3
70 14 1
70 15 1
70 16 1
70 17 1
70 18 3
70 19 5
70 20 5
70 21 2
70 22 2
70 23 2
70 24 2
70 25 2
70 26 3
70 27 1
70 28 2
70 29 4
70 30 4
70 31 2
70 32 3
70 33 5
70 34 4
70 35 2
70 36 2
70 37 1
70 38 2
70 39 5
70 40 2
70 41 4
70 42 3
70 43 1
70 44 1
70 45 5
70 46 5
70 47 5
70 48 4
70 49 5
70 50 5
70 51 3
70 52 3
70 53 5
70 54 1
70 55 4
70 56 1
70 57 1
70 58 4
70 59 1
70 60 2
70 61 2
70 62 3
70 63 5
70 64 5
70 65 4
70 66 4
70 67 1
70 68 5
70 69 4
71 0 2
71 1 5
71 2 2
71 3 5
71 4 3
71 5 1
71 6 1
71 7 5
71 8 4
71 9 1
71 10 3
71 11 3
71 12 4
71 13 3
71 14 4
71 15 4
71 16 2
71 17 2
71 18 2
71 19 1
71 20 4
71 21 1
71 22 2
71 23 5
71 24 1
71 25 4
71 26 4
71 27 2
71 28 1
71 29 4
71 30 1
71 31 2
71 32 3
71 33 5
71 34 2
71 35 4
71 36 2
71 37 5
71 38 2
71 39 1
71 40 5
71 41 4
71 42 2
71 43 5
71 44 4
71 45 4
71 46 1
71 47 2
71 48 2
71 49 2
71 50 3
71 51 4
71 52 4
71 53 1
71 54 5
71 55 3
71 56 4
71 57 2
71 58 3
71 59 2
71 60 3
71 61 5
71 62 4
71 63 2
71 64 3
71 65 5
71 66 5
71 67 1
71 68 5
71 69 5
71 70 5
72 0 1
72 1 2
72 2 5
72 3 5
72 4 3
72 5 1
72 6 1
72 7 4
72 8 5
72 9 5
72 10 1
72 11 2
72 12 4
72 13 2
72 14 5
72 15 4
72 16 4
72 17 4
72 18 2
72 19 1
72 20 4
72 21 5
72 22 5
72 23 2
72 24 1
72 25 2
72 26 1
72 27 1
72 28 2
72 29 1
72 30 1
72 31 3
72 32 1
72 33 1
72 34 1
72 35 4
72 36 5
72 37 3
72 38 3
72 39 5
72 40 1
72 41 3
72 42 1
72 43 2
72 44 2
72 45 5
72 46 1
72 47 5
72 48 3
72 49 3
72 50 1
72 51 4
72 52 1
72 53 2
72 54 5
72 55 2
72 56 4
72 57 5
72 58 4
72 59 1
72 60 5
72 61 4
72 62 1
72 63 3
72 64 1
72 65 3
72 66 4
72 67 2
72 68 1
72 69 4
72 70 4
72 71 4
73 0 1
73 1 4
73 2 2
73 3 3
73 4 2
73 5 2
73 6 5
73 7 2
73 8 5
73 9 1
73 10 1
73 11 4
73 12 2
73 13 2
73 14 3
73 15 5
73 16 5
73 17 3
73 18 2
73 19 2
73 20 1
73 21 5
73 22 2
73 23 2
73 24 1
73 25 3
73 26 5
73 27 3
73 28 4
73 29 5
73 30 2
73 31 1
73 32 2
73 33 4
73 34 3
73 35 1
73 36 2
73 37 2
73 38 2
73 39 2
73 40 2
73 41 5
73 42 5
73 43 2
73 44 3
73 45 4
73 46 2
73 47 5
73 48 3
73 49 1
73 50 5
73 51 2
73 52 5
73 53 5
73 54 4
73 55 5
73 56 3
73 57 2
73 58 3
73 59 2
73 60 1
73 61 1
73 62 1
73 63 3
73 64 4
73 65 1
73 66 5
73 67 4
73 68 3
73 69 4
73 70 4
73 71 1
73 72 1
74 0 5
74 1 4
74 2 5
74 3 2
74 4 2
74 5 5
74 6 5
74 7 1
74 8 5
74 9 2
74 10 3
74 11 4
74 12 4
74 13 3
74 14 4
74 15 3
74 16 3
74 17 4
74 18 1
74 19 2
74 20 3
74 21 1
74 22 1
74 23 5
74 24 4
74 25 4
74 26 1
74 27 1
74 28 4
74 29 2
74 30 5
74 31 5
74 32 4
74 33 5
74 34 4
74 35 5
74 36 3
74 37 1
74 38 4
74 39 4
74 40 3
74 41 5
74 42 5
74 43 4
74 44 2
74 45 1
74 46 4
74 47 2
74 48 2
74 49 5
74 50 1
74 51 3
74 52 4
74 53 4
74 54 5
74 55 4
74 56 1
74 57 2
74 58 1
74 59 2
74 60 3
74 61 3
74 62 2
74 63 3
74 64 4
74 65 4
74 66 1
74 67 4
74 68 1
74 69 5
74 70 4
74 71 1
74 72 1
74 73 2
